(set-logic ALL)
(declare-const BAV1 Bool)
(declare-const BAV2 Bool)
(declare-const BAV3 Bool)
(declare-const BAV4 Bool)
(declare-const BAV5 Bool)
(declare-const BAV6 Bool)
(declare-const BAV7 Bool)
(declare-const BAV8 Bool)
(declare-const BAV9 Bool)
(declare-const BAV10 Bool)
(declare-const BAV11 Bool)
(declare-const BAV12 Bool)
(declare-const BAV13 Bool)
(declare-const BAV14 Bool)
(declare-const BAV15 Bool)
(declare-const BAV16 Bool)
(declare-const BAV17 Bool)
(declare-const BAV18 Bool)
(declare-const BAV19 Bool)
(declare-const BAV20 Bool)
(declare-const BAV21 Bool)
(declare-const BAV22 Bool)
(declare-const BAV23 Bool)
(declare-const BAV24 Bool)
(declare-const BAV25 Bool)
(declare-const BAV26 Bool)
(declare-const BAV27 Bool)
(declare-const BAV28 Bool)
(declare-const BAV29 Bool)
(declare-const BAV30 Bool)
(declare-const BAV31 Bool)
(declare-const BAV32 Bool)
(declare-const BAV33 Bool)
(declare-datatypes () ((UNIT (Unit))))
(declare-datatypes () ((BOOL (Truth) (Falsity))))
(declare-sort node$type 0)
(declare-sort data$type 0)
(declare-datatypes () ((cache_state$type (invalid) (shared) (exclusive))))
(declare-datatypes () ((cache$type (c_cache$type (c_state cache_state$type) (c_data data$type)))))
(declare-datatypes () ((msg_cmd$type (empty) (reqs) (reqe) (inv) (invack) (gnts) (gnte))))
(declare-datatypes () ((msg$type (c_msg$type (m_cmd msg_cmd$type) (m_data data$type)))))
(declare-fun dummy () data$type)
(declare-fun memdata$1 () data$type)
(declare-fun shrset$1 () (Array node$type BOOL))
(declare-fun recv_invack$i () node$type)
(declare-fun exgntd () BOOL)
(declare-fun chan3$1 () (Array node$type msg$type))
(declare-fun shrset () (Array node$type BOOL))
(declare-fun exgntd$1 () BOOL)
(declare-fun chan2 () (Array node$type msg$type))
(declare-fun chan3 () (Array node$type msg$type))
(declare-fun auxnode () node$type)
(declare-fun curcmd () msg_cmd$type)
(assert (not (=> (and (and (forall ((n node$type)) (=> (= (m_cmd (select chan2 n)) gnte) (= exgntd Truth))) (forall ((n node$type)) (=> (= exgntd Truth) (= (select shrset n) (ite (= n auxnode) Truth Falsity))))) (forall ((n node$type)) (=> (= (m_cmd (select chan3 n)) invack) (= (m_cmd (select chan2 n)) empty)))) (=> (= (m_cmd (select chan3 recv_invack$i)) invack) (=> (not (= curcmd empty)) (=> (= chan3$1 (store chan3 recv_invack$i (c_msg$type empty (m_data (select chan3 recv_invack$i))))) (=> (= shrset$1 (store shrset recv_invack$i Falsity)) (= (ite (= exgntd Truth) (ite (=> (= exgntd$1 Falsity) (=> (= memdata$1 (m_data (select chan3$1 recv_invack$i))) (forall ((n node$type)) (=> (= (m_cmd (select chan2 n)) gnte) (= exgntd$1 Truth))))) Truth Falsity) (ite (forall ((n node$type)) (=> (= (m_cmd (select chan2 n)) gnte) (= exgntd Truth))) Truth Falsity)) Truth))))))))
(assert (= BAV1 (=> (and (and (forall ((n node$type)) (=> (= (m_cmd (select chan2 n)) gnte) (= exgntd Truth))) (forall ((n node$type)) (=> (= exgntd Truth) (= (select shrset n) (ite (= n auxnode) Truth Falsity))))) (forall ((n node$type)) (=> (= (m_cmd (select chan3 n)) invack) (= (m_cmd (select chan2 n)) empty)))) (=> (= (m_cmd (select chan3 recv_invack$i)) invack) (=> (not (= curcmd empty)) (=> (= chan3$1 (store chan3 recv_invack$i (c_msg$type empty (m_data (select chan3 recv_invack$i))))) (=> (= shrset$1 (store shrset recv_invack$i Falsity)) (= (ite (= exgntd Truth) (ite (=> (= exgntd$1 Falsity) (=> (= memdata$1 (m_data (select chan3$1 recv_invack$i))) (forall ((n node$type)) (=> (= (m_cmd (select chan2 n)) gnte) (= exgntd$1 Truth))))) Truth Falsity) (ite (forall ((n node$type)) (=> (= (m_cmd (select chan2 n)) gnte) (= exgntd Truth))) Truth Falsity)) Truth))))))))
(assert (= BAV2 (and (and (forall ((n node$type)) (=> (= (m_cmd (select chan2 n)) gnte) (= exgntd Truth))) (forall ((n node$type)) (=> (= exgntd Truth) (= (select shrset n) (ite (= n auxnode) Truth Falsity))))) (forall ((n node$type)) (=> (= (m_cmd (select chan3 n)) invack) (= (m_cmd (select chan2 n)) empty))))))
(assert (= BAV3 (and (forall ((n node$type)) (=> (= (m_cmd (select chan2 n)) gnte) (= exgntd Truth))) (forall ((n node$type)) (=> (= exgntd Truth) (= (select shrset n) (ite (= n auxnode) Truth Falsity)))))))
(assert (= BAV4 (forall ((n node$type)) (=> (= (m_cmd (select chan2 n)) gnte) (= exgntd Truth)))))
(assert (= BAV5 (forall ((n node$type)) (= (m_cmd (select chan2 n)) gnte))))
(assert (= BAV6 (forall ((n node$type)) (= exgntd Truth))))
(assert (= BAV7 (forall ((n node$type)) (=> (= exgntd Truth) (= (select shrset n) (ite (= n auxnode) Truth Falsity))))))
(assert (= BAV8 (forall ((n node$type)) (= exgntd Truth))))
(assert (= BAV9 (forall ((n node$type)) (= (select shrset n) (ite (= n auxnode) Truth Falsity)))))
(assert (= BAV10 (forall ((n node$type)) (= n auxnode))))
(assert (= BAV11 (forall ((n node$type)) (=> (= (m_cmd (select chan3 n)) invack) (= (m_cmd (select chan2 n)) empty)))))
(assert (= BAV12 (forall ((n node$type)) (= (m_cmd (select chan3 n)) invack))))
(assert (= BAV13 (forall ((n node$type)) (= (m_cmd (select chan2 n)) empty))))
(assert (= BAV14 (=> (= (m_cmd (select chan3 recv_invack$i)) invack) (=> (not (= curcmd empty)) (=> (= chan3$1 (store chan3 recv_invack$i (c_msg$type empty (m_data (select chan3 recv_invack$i))))) (=> (= shrset$1 (store shrset recv_invack$i Falsity)) (= (ite (= exgntd Truth) (ite (=> (= exgntd$1 Falsity) (=> (= memdata$1 (m_data (select chan3$1 recv_invack$i))) (forall ((n node$type)) (=> (= (m_cmd (select chan2 n)) gnte) (= exgntd$1 Truth))))) Truth Falsity) (ite (forall ((n node$type)) (=> (= (m_cmd (select chan2 n)) gnte) (= exgntd Truth))) Truth Falsity)) Truth)))))))
(assert (= BAV15 (= (m_cmd (select chan3 recv_invack$i)) invack)))
(assert (= BAV16 (=> (not (= curcmd empty)) (=> (= chan3$1 (store chan3 recv_invack$i (c_msg$type empty (m_data (select chan3 recv_invack$i))))) (=> (= shrset$1 (store shrset recv_invack$i Falsity)) (= (ite (= exgntd Truth) (ite (=> (= exgntd$1 Falsity) (=> (= memdata$1 (m_data (select chan3$1 recv_invack$i))) (forall ((n node$type)) (=> (= (m_cmd (select chan2 n)) gnte) (= exgntd$1 Truth))))) Truth Falsity) (ite (forall ((n node$type)) (=> (= (m_cmd (select chan2 n)) gnte) (= exgntd Truth))) Truth Falsity)) Truth))))))
(assert (= BAV17 (= curcmd empty)))
(assert (= BAV18 (=> (= chan3$1 (store chan3 recv_invack$i (c_msg$type empty (m_data (select chan3 recv_invack$i))))) (=> (= shrset$1 (store shrset recv_invack$i Falsity)) (= (ite (= exgntd Truth) (ite (=> (= exgntd$1 Falsity) (=> (= memdata$1 (m_data (select chan3$1 recv_invack$i))) (forall ((n node$type)) (=> (= (m_cmd (select chan2 n)) gnte) (= exgntd$1 Truth))))) Truth Falsity) (ite (forall ((n node$type)) (=> (= (m_cmd (select chan2 n)) gnte) (= exgntd Truth))) Truth Falsity)) Truth)))))
(assert (= BAV19 (= chan3$1 (store chan3 recv_invack$i (c_msg$type empty (m_data (select chan3 recv_invack$i)))))))
(assert (= BAV20 (=> (= shrset$1 (store shrset recv_invack$i Falsity)) (= (ite (= exgntd Truth) (ite (=> (= exgntd$1 Falsity) (=> (= memdata$1 (m_data (select chan3$1 recv_invack$i))) (forall ((n node$type)) (=> (= (m_cmd (select chan2 n)) gnte) (= exgntd$1 Truth))))) Truth Falsity) (ite (forall ((n node$type)) (=> (= (m_cmd (select chan2 n)) gnte) (= exgntd Truth))) Truth Falsity)) Truth))))
(assert (= BAV21 (= shrset$1 (store shrset recv_invack$i Falsity))))
(assert (= BAV22 (= (ite (= exgntd Truth) (ite (=> (= exgntd$1 Falsity) (=> (= memdata$1 (m_data (select chan3$1 recv_invack$i))) (forall ((n node$type)) (=> (= (m_cmd (select chan2 n)) gnte) (= exgntd$1 Truth))))) Truth Falsity) (ite (forall ((n node$type)) (=> (= (m_cmd (select chan2 n)) gnte) (= exgntd Truth))) Truth Falsity)) Truth)))
(assert (= BAV23 (= exgntd Truth)))
(assert (= BAV24 (=> (= exgntd$1 Falsity) (=> (= memdata$1 (m_data (select chan3$1 recv_invack$i))) (forall ((n node$type)) (=> (= (m_cmd (select chan2 n)) gnte) (= exgntd$1 Truth)))))))
(assert (= BAV25 (= exgntd$1 Falsity)))
(assert (= BAV26 (=> (= memdata$1 (m_data (select chan3$1 recv_invack$i))) (forall ((n node$type)) (=> (= (m_cmd (select chan2 n)) gnte) (= exgntd$1 Truth))))))
(assert (= BAV27 (= memdata$1 (m_data (select chan3$1 recv_invack$i)))))
(assert (= BAV28 (forall ((n node$type)) (=> (= (m_cmd (select chan2 n)) gnte) (= exgntd$1 Truth)))))
(assert (= BAV29 (forall ((n node$type)) (= (m_cmd (select chan2 n)) gnte))))
(assert (= BAV30 (forall ((n node$type)) (= exgntd$1 Truth))))
(assert (= BAV31 (forall ((n node$type)) (=> (= (m_cmd (select chan2 n)) gnte) (= exgntd Truth)))))
(assert (= BAV32 (forall ((n node$type)) (= (m_cmd (select chan2 n)) gnte))))
(assert (= BAV33 (forall ((n node$type)) (= exgntd Truth))))
(check-sat)
(get-model)
(exit)